p cnf 35 1520
1 2 3 0
-1 -2 0
-1 -3 0
-1 -4 0
-1 -5 0
-2 -3 0
-2 -4 0
-2 -5 0
-3 -4 0
-3 -5 0
-4 -5 0
6 7 8 0
-6 -7 0
-6 -8 0
-6 -9 0
-6 -10 0
-7 -8 0
-7 -9 0
-7 -10 0
-8 -9 0
-8 -10 0
-9 -10 0
11 12 13 14 0
-11 -12 0
-11 -13 0
-11 -14 0
-11 -15 0
-12 -13 0
-12 -14 0
-12 -15 0
-13 -14 0
-13 -15 0
-14 -15 0
16 17 18 19 0
-16 -17 0
-16 -18 0
-16 -19 0
-16 -20 0
-17 -18 0
-17 -19 0
-17 -20 0
-18 -19 0
-18 -20 0
-19 -20 0
21 22 23 24 25 0
-21 -22 0
-21 -23 0
-21 -24 0
-21 -25 0
-22 -23 0
-22 -24 0
-22 -25 0
-23 -24 0
-23 -25 0
-24 -25 0
26 27 28 0
-26 -27 0
-26 -28 0
-26 -29 0
-26 -30 0
-27 -28 0
-27 -29 0
-27 -30 0
-28 -29 0
-28 -30 0
-29 -30 0
31 32 33 0
-31 -32 0
-31 -33 0
-31 -34 0
-31 -35 0
-32 -33 0
-32 -34 0
-32 -35 0
-33 -34 0
-33 -35 0
-34 -35 0
-11 -16 0
-11 -17 0
-11 -18 0
-12 -16 0
-12 -17 0
-12 -18 0
-12 -19 0
-13 -16 0
-13 -17 0
-13 -18 0
-13 -19 0
-13 -20 0
-14 -16 0
-14 -17 0
-14 -18 0
-14 -19 0
-14 -20 0
-14 0
-15 -16 0
-15 -17 0
-15 -18 0
-15 -19 0
-15 -20 0
-15 0
-15 0
-21 -26 0
-21 -27 0
-22 -26 0
-22 -27 0
-22 -28 0
-23 -26 0
-23 -27 0
-23 -28 0
-23 -29 0
-24 -26 0
-24 -27 0
-24 -28 0
-24 -29 0
-24 -30 0
-25 -26 0
-25 -27 0
-25 -28 0
-25 -29 0
-25 -30 0
-25 0
1 6 11 16 0
1 6 21 26 0
1 6 31 0
1 11 16 21 26 0
1 11 16 31 0
1 21 26 31 0
6 11 16 21 26 0
6 11 16 31 0
6 21 26 31 0
11 16 21 26 31 0
-1 -6 -11 -21 0
-1 -6 -11 -26 0
-1 -6 -16 -21 0
-1 -6 -16 -26 0
-1 -6 -11 -31 0
-1 -6 -16 -31 0
-1 -6 -21 -31 0
-1 -6 -26 -31 0
-1 -11 -21 -31 0
-1 -11 -26 -31 0
-1 -16 -21 -31 0
-1 -16 -26 -31 0
-6 -11 -21 -31 0
-6 -11 -26 -31 0
-6 -16 -21 -31 0
-6 -16 -26 -31 0
2 1 7 6 12 11 17 16 22 27 26 0
2 1 7 6 12 11 17 16 32 31 0
2 1 7 6 22 27 26 32 31 0
2 1 12 11 17 16 22 27 26 32 31 0
7 6 12 11 17 16 22 27 26 32 31 0
-2 -7 -12 -22 -32 0
-2 -7 -12 -22 -31 0
-2 -7 -12 -27 -32 0
-2 -7 -12 -27 -31 0
-2 -7 -12 -26 -32 0
-2 -7 -12 -26 -31 0
-2 -7 -11 -22 -32 0
-2 -7 -11 -22 -31 0
-2 -7 -11 -27 -32 0
-2 -7 -11 -27 -31 0
-2 -7 -11 -26 -32 0
-2 -7 -11 -26 -31 0
-2 -7 -17 -22 -32 0
-2 -7 -17 -22 -31 0
-2 -7 -17 -27 -32 0
-2 -7 -17 -27 -31 0
-2 -7 -17 -26 -32 0
-2 -7 -17 -26 -31 0
-2 -7 -16 -22 -32 0
-2 -7 -16 -22 -31 0
-2 -7 -16 -27 -32 0
-2 -7 -16 -27 -31 0
-2 -7 -16 -26 -32 0
-2 -7 -16 -26 -31 0
-2 -6 -12 -22 -32 0
-2 -6 -12 -22 -31 0
-2 -6 -12 -27 -32 0
-2 -6 -12 -27 -31 0
-2 -6 -12 -26 -32 0
-2 -6 -12 -26 -31 0
-2 -6 -11 -22 -32 0
-2 -6 -11 -22 -31 0
-2 -6 -11 -27 -32 0
-2 -6 -11 -27 -31 0
-2 -6 -11 -26 -32 0
-2 -6 -11 -26 -31 0
-2 -6 -17 -22 -32 0
-2 -6 -17 -22 -31 0
-2 -6 -17 -27 -32 0
-2 -6 -17 -27 -31 0
-2 -6 -17 -26 -32 0
-2 -6 -17 -26 -31 0
-2 -6 -16 -22 -32 0
-2 -6 -16 -22 -31 0
-2 -6 -16 -27 -32 0
-2 -6 -16 -27 -31 0
-2 -6 -16 -26 -32 0
-2 -6 -16 -26 -31 0
-1 -7 -12 -22 -32 0
-1 -7 -12 -22 -31 0
-1 -7 -12 -27 -32 0
-1 -7 -12 -27 -31 0
-1 -7 -12 -26 -32 0
-1 -7 -12 -26 -31 0
-1 -7 -11 -22 -32 0
-1 -7 -11 -22 -31 0
-1 -7 -11 -27 -32 0
-1 -7 -11 -27 -31 0
-1 -7 -11 -26 -32 0
-1 -7 -11 -26 -31 0
-1 -7 -17 -22 -32 0
-1 -7 -17 -22 -31 0
-1 -7 -17 -27 -32 0
-1 -7 -17 -27 -31 0
-1 -7 -17 -26 -32 0
-1 -7 -17 -26 -31 0
-1 -7 -16 -22 -32 0
-1 -7 -16 -22 -31 0
-1 -7 -16 -27 -32 0
-1 -7 -16 -27 -31 0
-1 -7 -16 -26 -32 0
-1 -7 -16 -26 -31 0
-1 -6 -12 -22 -32 0
-1 -6 -12 -22 -31 0
-1 -6 -12 -27 -32 0
-1 -6 -12 -27 -31 0
-1 -6 -12 -26 -32 0
-1 -6 -12 -26 -31 0
-1 -6 -11 -22 -32 0
-1 -6 -11 -22 -31 0
-1 -6 -11 -27 -32 0
-1 -6 -11 -27 -31 0
-1 -6 -11 -26 -32 0
-1 -6 -11 -26 -31 0
-1 -6 -17 -22 -32 0
-1 -6 -17 -22 -31 0
-1 -6 -17 -27 -32 0
-1 -6 -17 -27 -31 0
-1 -6 -17 -26 -32 0
-1 -6 -17 -26 -31 0
-1 -6 -16 -22 -32 0
-1 -6 -16 -22 -31 0
-1 -6 -16 -27 -32 0
-1 -6 -16 -27 -31 0
-1 -6 -16 -26 -32 0
-1 -6 -16 -26 -31 0
3 2 1 8 7 6 13 12 18 17 23 28 27 26 0
3 2 1 8 7 6 13 12 18 17 33 32 31 0
3 2 1 8 7 6 23 28 27 26 33 32 31 0
3 2 1 13 12 18 17 23 28 27 26 33 32 31 0
8 7 6 13 12 18 17 23 28 27 26 33 32 31 0
-3 -8 -13 -23 -33 0
-3 -8 -13 -23 -32 0
-3 -8 -13 -23 -31 0
-3 -8 -13 -28 -33 0
-3 -8 -13 -28 -32 0
-3 -8 -13 -28 -31 0
-3 -8 -13 -27 -33 0
-3 -8 -13 -27 -32 0
-3 -8 -13 -27 -31 0
-3 -8 -13 -26 -33 0
-3 -8 -13 -26 -32 0
-3 -8 -13 -26 -31 0
-3 -8 -12 -23 -33 0
-3 -8 -12 -23 -32 0
-3 -8 -12 -23 -31 0
-3 -8 -12 -28 -33 0
-3 -8 -12 -28 -32 0
-3 -8 -12 -28 -31 0
-3 -8 -12 -27 -33 0
-3 -8 -12 -27 -32 0
-3 -8 -12 -27 -31 0
-3 -8 -12 -26 -33 0
-3 -8 -12 -26 -32 0
-3 -8 -12 -26 -31 0
-3 -8 -18 -23 -33 0
-3 -8 -18 -23 -32 0
-3 -8 -18 -23 -31 0
-3 -8 -18 -28 -33 0
-3 -8 -18 -28 -32 0
-3 -8 -18 -28 -31 0
-3 -8 -18 -27 -33 0
-3 -8 -18 -27 -32 0
-3 -8 -18 -27 -31 0
-3 -8 -18 -26 -33 0
-3 -8 -18 -26 -32 0
-3 -8 -18 -26 -31 0
-3 -8 -17 -23 -33 0
-3 -8 -17 -23 -32 0
-3 -8 -17 -23 -31 0
-3 -8 -17 -28 -33 0
-3 -8 -17 -28 -32 0
-3 -8 -17 -28 -31 0
-3 -8 -17 -27 -33 0
-3 -8 -17 -27 -32 0
-3 -8 -17 -27 -31 0
-3 -8 -17 -26 -33 0
-3 -8 -17 -26 -32 0
-3 -8 -17 -26 -31 0
-3 -7 -13 -23 -33 0
-3 -7 -13 -23 -32 0
-3 -7 -13 -23 -31 0
-3 -7 -13 -28 -33 0
-3 -7 -13 -28 -32 0
-3 -7 -13 -28 -31 0
-3 -7 -13 -27 -33 0
-3 -7 -13 -27 -32 0
-3 -7 -13 -27 -31 0
-3 -7 -13 -26 -33 0
-3 -7 -13 -26 -32 0
-3 -7 -13 -26 -31 0
-3 -7 -12 -23 -33 0
-3 -7 -12 -23 -32 0
-3 -7 -12 -23 -31 0
-3 -7 -12 -28 -33 0
-3 -7 -12 -28 -32 0
-3 -7 -12 -28 -31 0
-3 -7 -12 -27 -33 0
-3 -7 -12 -27 -32 0
-3 -7 -12 -27 -31 0
-3 -7 -12 -26 -33 0
-3 -7 -12 -26 -32 0
-3 -7 -12 -26 -31 0
-3 -7 -18 -23 -33 0
-3 -7 -18 -23 -32 0
-3 -7 -18 -23 -31 0
-3 -7 -18 -28 -33 0
-3 -7 -18 -28 -32 0
-3 -7 -18 -28 -31 0
-3 -7 -18 -27 -33 0
-3 -7 -18 -27 -32 0
-3 -7 -18 -27 -31 0
-3 -7 -18 -26 -33 0
-3 -7 -18 -26 -32 0
-3 -7 -18 -26 -31 0
-3 -7 -17 -23 -33 0
-3 -7 -17 -23 -32 0
-3 -7 -17 -23 -31 0
-3 -7 -17 -28 -33 0
-3 -7 -17 -28 -32 0
-3 -7 -17 -28 -31 0
-3 -7 -17 -27 -33 0
-3 -7 -17 -27 -32 0
-3 -7 -17 -27 -31 0
-3 -7 -17 -26 -33 0
-3 -7 -17 -26 -32 0
-3 -7 -17 -26 -31 0
-3 -6 -13 -23 -33 0
-3 -6 -13 -23 -32 0
-3 -6 -13 -23 -31 0
-3 -6 -13 -28 -33 0
-3 -6 -13 -28 -32 0
-3 -6 -13 -28 -31 0
-3 -6 -13 -27 -33 0
-3 -6 -13 -27 -32 0
-3 -6 -13 -27 -31 0
-3 -6 -13 -26 -33 0
-3 -6 -13 -26 -32 0
-3 -6 -13 -26 -31 0
-3 -6 -12 -23 -33 0
-3 -6 -12 -23 -32 0
-3 -6 -12 -23 -31 0
-3 -6 -12 -28 -33 0
-3 -6 -12 -28 -32 0
-3 -6 -12 -28 -31 0
-3 -6 -12 -27 -33 0
-3 -6 -12 -27 -32 0
-3 -6 -12 -27 -31 0
-3 -6 -12 -26 -33 0
-3 -6 -12 -26 -32 0
-3 -6 -12 -26 -31 0
-3 -6 -18 -23 -33 0
-3 -6 -18 -23 -32 0
-3 -6 -18 -23 -31 0
-3 -6 -18 -28 -33 0
-3 -6 -18 -28 -32 0
-3 -6 -18 -28 -31 0
-3 -6 -18 -27 -33 0
-3 -6 -18 -27 -32 0
-3 -6 -18 -27 -31 0
-3 -6 -18 -26 -33 0
-3 -6 -18 -26 -32 0
-3 -6 -18 -26 -31 0
-3 -6 -17 -23 -33 0
-3 -6 -17 -23 -32 0
-3 -6 -17 -23 -31 0
-3 -6 -17 -28 -33 0
-3 -6 -17 -28 -32 0
-3 -6 -17 -28 -31 0
-3 -6 -17 -27 -33 0
-3 -6 -17 -27 -32 0
-3 -6 -17 -27 -31 0
-3 -6 -17 -26 -33 0
-3 -6 -17 -26 -32 0
-3 -6 -17 -26 -31 0
-2 -8 -13 -23 -33 0
-2 -8 -13 -23 -32 0
-2 -8 -13 -23 -31 0
-2 -8 -13 -28 -33 0
-2 -8 -13 -28 -32 0
-2 -8 -13 -28 -31 0
-2 -8 -13 -27 -33 0
-2 -8 -13 -27 -32 0
-2 -8 -13 -27 -31 0
-2 -8 -13 -26 -33 0
-2 -8 -13 -26 -32 0
-2 -8 -13 -26 -31 0
-2 -8 -12 -23 -33 0
-2 -8 -12 -23 -32 0
-2 -8 -12 -23 -31 0
-2 -8 -12 -28 -33 0
-2 -8 -12 -28 -32 0
-2 -8 -12 -28 -31 0
-2 -8 -12 -27 -33 0
-2 -8 -12 -27 -32 0
-2 -8 -12 -27 -31 0
-2 -8 -12 -26 -33 0
-2 -8 -12 -26 -32 0
-2 -8 -12 -26 -31 0
-2 -8 -18 -23 -33 0
-2 -8 -18 -23 -32 0
-2 -8 -18 -23 -31 0
-2 -8 -18 -28 -33 0
-2 -8 -18 -28 -32 0
-2 -8 -18 -28 -31 0
-2 -8 -18 -27 -33 0
-2 -8 -18 -27 -32 0
-2 -8 -18 -27 -31 0
-2 -8 -18 -26 -33 0
-2 -8 -18 -26 -32 0
-2 -8 -18 -26 -31 0
-2 -8 -17 -23 -33 0
-2 -8 -17 -23 -32 0
-2 -8 -17 -23 -31 0
-2 -8 -17 -28 -33 0
-2 -8 -17 -28 -32 0
-2 -8 -17 -28 -31 0
-2 -8 -17 -27 -33 0
-2 -8 -17 -27 -32 0
-2 -8 -17 -27 -31 0
-2 -8 -17 -26 -33 0
-2 -8 -17 -26 -32 0
-2 -8 -17 -26 -31 0
-2 -7 -13 -23 -33 0
-2 -7 -13 -23 -32 0
-2 -7 -13 -23 -31 0
-2 -7 -13 -28 -33 0
-2 -7 -13 -28 -32 0
-2 -7 -13 -28 -31 0
-2 -7 -13 -27 -33 0
-2 -7 -13 -27 -32 0
-2 -7 -13 -27 -31 0
-2 -7 -13 -26 -33 0
-2 -7 -13 -26 -32 0
-2 -7 -13 -26 -31 0
-2 -7 -12 -23 -33 0
-2 -7 -12 -23 -32 0
-2 -7 -12 -23 -31 0
-2 -7 -12 -28 -33 0
-2 -7 -12 -28 -32 0
-2 -7 -12 -28 -31 0
-2 -7 -12 -27 -33 0
-2 -7 -12 -27 -32 0
-2 -7 -12 -27 -31 0
-2 -7 -12 -26 -33 0
-2 -7 -12 -26 -32 0
-2 -7 -12 -26 -31 0
-2 -7 -18 -23 -33 0
-2 -7 -18 -23 -32 0
-2 -7 -18 -23 -31 0
-2 -7 -18 -28 -33 0
-2 -7 -18 -28 -32 0
-2 -7 -18 -28 -31 0
-2 -7 -18 -27 -33 0
-2 -7 -18 -27 -32 0
-2 -7 -18 -27 -31 0
-2 -7 -18 -26 -33 0
-2 -7 -18 -26 -32 0
-2 -7 -18 -26 -31 0
-2 -7 -17 -23 -33 0
-2 -7 -17 -23 -32 0
-2 -7 -17 -23 -31 0
-2 -7 -17 -28 -33 0
-2 -7 -17 -28 -32 0
-2 -7 -17 -28 -31 0
-2 -7 -17 -27 -33 0
-2 -7 -17 -27 -32 0
-2 -7 -17 -27 -31 0
-2 -7 -17 -26 -33 0
-2 -7 -17 -26 -32 0
-2 -7 -17 -26 -31 0
-2 -6 -13 -23 -33 0
-2 -6 -13 -23 -32 0
-2 -6 -13 -23 -31 0
-2 -6 -13 -28 -33 0
-2 -6 -13 -28 -32 0
-2 -6 -13 -28 -31 0
-2 -6 -13 -27 -33 0
-2 -6 -13 -27 -32 0
-2 -6 -13 -27 -31 0
-2 -6 -13 -26 -33 0
-2 -6 -13 -26 -32 0
-2 -6 -13 -26 -31 0
-2 -6 -12 -23 -33 0
-2 -6 -12 -23 -32 0
-2 -6 -12 -23 -31 0
-2 -6 -12 -28 -33 0
-2 -6 -12 -28 -32 0
-2 -6 -12 -28 -31 0
-2 -6 -12 -27 -33 0
-2 -6 -12 -27 -32 0
-2 -6 -12 -27 -31 0
-2 -6 -12 -26 -33 0
-2 -6 -12 -26 -32 0
-2 -6 -12 -26 -31 0
-2 -6 -18 -23 -33 0
-2 -6 -18 -23 -32 0
-2 -6 -18 -23 -31 0
-2 -6 -18 -28 -33 0
-2 -6 -18 -28 -32 0
-2 -6 -18 -28 -31 0
-2 -6 -18 -27 -33 0
-2 -6 -18 -27 -32 0
-2 -6 -18 -27 -31 0
-2 -6 -18 -26 -33 0
-2 -6 -18 -26 -32 0
-2 -6 -18 -26 -31 0
-2 -6 -17 -23 -33 0
-2 -6 -17 -23 -32 0
-2 -6 -17 -23 -31 0
-2 -6 -17 -28 -33 0
-2 -6 -17 -28 -32 0
-2 -6 -17 -28 -31 0
-2 -6 -17 -27 -33 0
-2 -6 -17 -27 -32 0
-2 -6 -17 -27 -31 0
-2 -6 -17 -26 -33 0
-2 -6 -17 -26 -32 0
-2 -6 -17 -26 -31 0
-1 -8 -13 -23 -33 0
-1 -8 -13 -23 -32 0
-1 -8 -13 -23 -31 0
-1 -8 -13 -28 -33 0
-1 -8 -13 -28 -32 0
-1 -8 -13 -28 -31 0
-1 -8 -13 -27 -33 0
-1 -8 -13 -27 -32 0
-1 -8 -13 -27 -31 0
-1 -8 -13 -26 -33 0
-1 -8 -13 -26 -32 0
-1 -8 -13 -26 -31 0
-1 -8 -12 -23 -33 0
-1 -8 -12 -23 -32 0
-1 -8 -12 -23 -31 0
-1 -8 -12 -28 -33 0
-1 -8 -12 -28 -32 0
-1 -8 -12 -28 -31 0
-1 -8 -12 -27 -33 0
-1 -8 -12 -27 -32 0
-1 -8 -12 -27 -31 0
-1 -8 -12 -26 -33 0
-1 -8 -12 -26 -32 0
-1 -8 -12 -26 -31 0
-1 -8 -18 -23 -33 0
-1 -8 -18 -23 -32 0
-1 -8 -18 -23 -31 0
-1 -8 -18 -28 -33 0
-1 -8 -18 -28 -32 0
-1 -8 -18 -28 -31 0
-1 -8 -18 -27 -33 0
-1 -8 -18 -27 -32 0
-1 -8 -18 -27 -31 0
-1 -8 -18 -26 -33 0
-1 -8 -18 -26 -32 0
-1 -8 -18 -26 -31 0
-1 -8 -17 -23 -33 0
-1 -8 -17 -23 -32 0
-1 -8 -17 -23 -31 0
-1 -8 -17 -28 -33 0
-1 -8 -17 -28 -32 0
-1 -8 -17 -28 -31 0
-1 -8 -17 -27 -33 0
-1 -8 -17 -27 -32 0
-1 -8 -17 -27 -31 0
-1 -8 -17 -26 -33 0
-1 -8 -17 -26 -32 0
-1 -8 -17 -26 -31 0
-1 -7 -13 -23 -33 0
-1 -7 -13 -23 -32 0
-1 -7 -13 -23 -31 0
-1 -7 -13 -28 -33 0
-1 -7 -13 -28 -32 0
-1 -7 -13 -28 -31 0
-1 -7 -13 -27 -33 0
-1 -7 -13 -27 -32 0
-1 -7 -13 -27 -31 0
-1 -7 -13 -26 -33 0
-1 -7 -13 -26 -32 0
-1 -7 -13 -26 -31 0
-1 -7 -12 -23 -33 0
-1 -7 -12 -23 -32 0
-1 -7 -12 -23 -31 0
-1 -7 -12 -28 -33 0
-1 -7 -12 -28 -32 0
-1 -7 -12 -28 -31 0
-1 -7 -12 -27 -33 0
-1 -7 -12 -27 -32 0
-1 -7 -12 -27 -31 0
-1 -7 -12 -26 -33 0
-1 -7 -12 -26 -32 0
-1 -7 -12 -26 -31 0
-1 -7 -18 -23 -33 0
-1 -7 -18 -23 -32 0
-1 -7 -18 -23 -31 0
-1 -7 -18 -28 -33 0
-1 -7 -18 -28 -32 0
-1 -7 -18 -28 -31 0
-1 -7 -18 -27 -33 0
-1 -7 -18 -27 -32 0
-1 -7 -18 -27 -31 0
-1 -7 -18 -26 -33 0
-1 -7 -18 -26 -32 0
-1 -7 -18 -26 -31 0
-1 -7 -17 -23 -33 0
-1 -7 -17 -23 -32 0
-1 -7 -17 -23 -31 0
-1 -7 -17 -28 -33 0
-1 -7 -17 -28 -32 0
-1 -7 -17 -28 -31 0
-1 -7 -17 -27 -33 0
-1 -7 -17 -27 -32 0
-1 -7 -17 -27 -31 0
-1 -7 -17 -26 -33 0
-1 -7 -17 -26 -32 0
-1 -7 -17 -26 -31 0
-1 -6 -13 -23 -33 0
-1 -6 -13 -23 -32 0
-1 -6 -13 -23 -31 0
-1 -6 -13 -28 -33 0
-1 -6 -13 -28 -32 0
-1 -6 -13 -28 -31 0
-1 -6 -13 -27 -33 0
-1 -6 -13 -27 -32 0
-1 -6 -13 -27 -31 0
-1 -6 -13 -26 -33 0
-1 -6 -13 -26 -32 0
-1 -6 -13 -26 -31 0
-1 -6 -12 -23 -33 0
-1 -6 -12 -23 -32 0
-1 -6 -12 -23 -31 0
-1 -6 -12 -28 -33 0
-1 -6 -12 -28 -32 0
-1 -6 -12 -28 -31 0
-1 -6 -12 -27 -33 0
-1 -6 -12 -27 -32 0
-1 -6 -12 -27 -31 0
-1 -6 -12 -26 -33 0
-1 -6 -12 -26 -32 0
-1 -6 -12 -26 -31 0
-1 -6 -18 -23 -33 0
-1 -6 -18 -23 -32 0
-1 -6 -18 -23 -31 0
-1 -6 -18 -28 -33 0
-1 -6 -18 -28 -32 0
-1 -6 -18 -28 -31 0
-1 -6 -18 -27 -33 0
-1 -6 -18 -27 -32 0
-1 -6 -18 -27 -31 0
-1 -6 -18 -26 -33 0
-1 -6 -18 -26 -32 0
-1 -6 -18 -26 -31 0
-1 -6 -17 -23 -33 0
-1 -6 -17 -23 -32 0
-1 -6 -17 -23 -31 0
-1 -6 -17 -28 -33 0
-1 -6 -17 -28 -32 0
-1 -6 -17 -28 -31 0
-1 -6 -17 -27 -33 0
-1 -6 -17 -27 -32 0
-1 -6 -17 -27 -31 0
-1 -6 -17 -26 -33 0
-1 -6 -17 -26 -32 0
-1 -6 -17 -26 -31 0
4 3 2 9 8 7 14 13 19 18 24 29 28 27 0
4 3 2 9 8 7 14 13 19 18 34 33 32 0
4 3 2 9 8 7 24 29 28 27 34 33 32 0
4 3 2 14 13 19 18 24 29 28 27 34 33 32 0
9 8 7 14 13 19 18 24 29 28 27 34 33 32 0
-4 -9 -14 -24 -34 0
-4 -9 -14 -24 -33 0
-4 -9 -14 -24 -32 0
-4 -9 -14 -29 -34 0
-4 -9 -14 -29 -33 0
-4 -9 -14 -29 -32 0
-4 -9 -14 -28 -34 0
-4 -9 -14 -28 -33 0
-4 -9 -14 -28 -32 0
-4 -9 -14 -27 -34 0
-4 -9 -14 -27 -33 0
-4 -9 -14 -27 -32 0
-4 -9 -13 -24 -34 0
-4 -9 -13 -24 -33 0
-4 -9 -13 -24 -32 0
-4 -9 -13 -29 -34 0
-4 -9 -13 -29 -33 0
-4 -9 -13 -29 -32 0
-4 -9 -13 -28 -34 0
-4 -9 -13 -28 -33 0
-4 -9 -13 -28 -32 0
-4 -9 -13 -27 -34 0
-4 -9 -13 -27 -33 0
-4 -9 -13 -27 -32 0
-4 -9 -19 -24 -34 0
-4 -9 -19 -24 -33 0
-4 -9 -19 -24 -32 0
-4 -9 -19 -29 -34 0
-4 -9 -19 -29 -33 0
-4 -9 -19 -29 -32 0
-4 -9 -19 -28 -34 0
-4 -9 -19 -28 -33 0
-4 -9 -19 -28 -32 0
-4 -9 -19 -27 -34 0
-4 -9 -19 -27 -33 0
-4 -9 -19 -27 -32 0
-4 -9 -18 -24 -34 0
-4 -9 -18 -24 -33 0
-4 -9 -18 -24 -32 0
-4 -9 -18 -29 -34 0
-4 -9 -18 -29 -33 0
-4 -9 -18 -29 -32 0
-4 -9 -18 -28 -34 0
-4 -9 -18 -28 -33 0
-4 -9 -18 -28 -32 0
-4 -9 -18 -27 -34 0
-4 -9 -18 -27 -33 0
-4 -9 -18 -27 -32 0
-4 -8 -14 -24 -34 0
-4 -8 -14 -24 -33 0
-4 -8 -14 -24 -32 0
-4 -8 -14 -29 -34 0
-4 -8 -14 -29 -33 0
-4 -8 -14 -29 -32 0
-4 -8 -14 -28 -34 0
-4 -8 -14 -28 -33 0
-4 -8 -14 -28 -32 0
-4 -8 -14 -27 -34 0
-4 -8 -14 -27 -33 0
-4 -8 -14 -27 -32 0
-4 -8 -13 -24 -34 0
-4 -8 -13 -24 -33 0
-4 -8 -13 -24 -32 0
-4 -8 -13 -29 -34 0
-4 -8 -13 -29 -33 0
-4 -8 -13 -29 -32 0
-4 -8 -13 -28 -34 0
-4 -8 -13 -28 -33 0
-4 -8 -13 -28 -32 0
-4 -8 -13 -27 -34 0
-4 -8 -13 -27 -33 0
-4 -8 -13 -27 -32 0
-4 -8 -19 -24 -34 0
-4 -8 -19 -24 -33 0
-4 -8 -19 -24 -32 0
-4 -8 -19 -29 -34 0
-4 -8 -19 -29 -33 0
-4 -8 -19 -29 -32 0
-4 -8 -19 -28 -34 0
-4 -8 -19 -28 -33 0
-4 -8 -19 -28 -32 0
-4 -8 -19 -27 -34 0
-4 -8 -19 -27 -33 0
-4 -8 -19 -27 -32 0
-4 -8 -18 -24 -34 0
-4 -8 -18 -24 -33 0
-4 -8 -18 -24 -32 0
-4 -8 -18 -29 -34 0
-4 -8 -18 -29 -33 0
-4 -8 -18 -29 -32 0
-4 -8 -18 -28 -34 0
-4 -8 -18 -28 -33 0
-4 -8 -18 -28 -32 0
-4 -8 -18 -27 -34 0
-4 -8 -18 -27 -33 0
-4 -8 -18 -27 -32 0
-4 -7 -14 -24 -34 0
-4 -7 -14 -24 -33 0
-4 -7 -14 -24 -32 0
-4 -7 -14 -29 -34 0
-4 -7 -14 -29 -33 0
-4 -7 -14 -29 -32 0
-4 -7 -14 -28 -34 0
-4 -7 -14 -28 -33 0
-4 -7 -14 -28 -32 0
-4 -7 -14 -27 -34 0
-4 -7 -14 -27 -33 0
-4 -7 -14 -27 -32 0
-4 -7 -13 -24 -34 0
-4 -7 -13 -24 -33 0
-4 -7 -13 -24 -32 0
-4 -7 -13 -29 -34 0
-4 -7 -13 -29 -33 0
-4 -7 -13 -29 -32 0
-4 -7 -13 -28 -34 0
-4 -7 -13 -28 -33 0
-4 -7 -13 -28 -32 0
-4 -7 -13 -27 -34 0
-4 -7 -13 -27 -33 0
-4 -7 -13 -27 -32 0
-4 -7 -19 -24 -34 0
-4 -7 -19 -24 -33 0
-4 -7 -19 -24 -32 0
-4 -7 -19 -29 -34 0
-4 -7 -19 -29 -33 0
-4 -7 -19 -29 -32 0
-4 -7 -19 -28 -34 0
-4 -7 -19 -28 -33 0
-4 -7 -19 -28 -32 0
-4 -7 -19 -27 -34 0
-4 -7 -19 -27 -33 0
-4 -7 -19 -27 -32 0
-4 -7 -18 -24 -34 0
-4 -7 -18 -24 -33 0
-4 -7 -18 -24 -32 0
-4 -7 -18 -29 -34 0
-4 -7 -18 -29 -33 0
-4 -7 -18 -29 -32 0
-4 -7 -18 -28 -34 0
-4 -7 -18 -28 -33 0
-4 -7 -18 -28 -32 0
-4 -7 -18 -27 -34 0
-4 -7 -18 -27 -33 0
-4 -7 -18 -27 -32 0
-3 -9 -14 -24 -34 0
-3 -9 -14 -24 -33 0
-3 -9 -14 -24 -32 0
-3 -9 -14 -29 -34 0
-3 -9 -14 -29 -33 0
-3 -9 -14 -29 -32 0
-3 -9 -14 -28 -34 0
-3 -9 -14 -28 -33 0
-3 -9 -14 -28 -32 0
-3 -9 -14 -27 -34 0
-3 -9 -14 -27 -33 0
-3 -9 -14 -27 -32 0
-3 -9 -13 -24 -34 0
-3 -9 -13 -24 -33 0
-3 -9 -13 -24 -32 0
-3 -9 -13 -29 -34 0
-3 -9 -13 -29 -33 0
-3 -9 -13 -29 -32 0
-3 -9 -13 -28 -34 0
-3 -9 -13 -28 -33 0
-3 -9 -13 -28 -32 0
-3 -9 -13 -27 -34 0
-3 -9 -13 -27 -33 0
-3 -9 -13 -27 -32 0
-3 -9 -19 -24 -34 0
-3 -9 -19 -24 -33 0
-3 -9 -19 -24 -32 0
-3 -9 -19 -29 -34 0
-3 -9 -19 -29 -33 0
-3 -9 -19 -29 -32 0
-3 -9 -19 -28 -34 0
-3 -9 -19 -28 -33 0
-3 -9 -19 -28 -32 0
-3 -9 -19 -27 -34 0
-3 -9 -19 -27 -33 0
-3 -9 -19 -27 -32 0
-3 -9 -18 -24 -34 0
-3 -9 -18 -24 -33 0
-3 -9 -18 -24 -32 0
-3 -9 -18 -29 -34 0
-3 -9 -18 -29 -33 0
-3 -9 -18 -29 -32 0
-3 -9 -18 -28 -34 0
-3 -9 -18 -28 -33 0
-3 -9 -18 -28 -32 0
-3 -9 -18 -27 -34 0
-3 -9 -18 -27 -33 0
-3 -9 -18 -27 -32 0
-3 -8 -14 -24 -34 0
-3 -8 -14 -24 -33 0
-3 -8 -14 -24 -32 0
-3 -8 -14 -29 -34 0
-3 -8 -14 -29 -33 0
-3 -8 -14 -29 -32 0
-3 -8 -14 -28 -34 0
-3 -8 -14 -28 -33 0
-3 -8 -14 -28 -32 0
-3 -8 -14 -27 -34 0
-3 -8 -14 -27 -33 0
-3 -8 -14 -27 -32 0
-3 -8 -13 -24 -34 0
-3 -8 -13 -24 -33 0
-3 -8 -13 -24 -32 0
-3 -8 -13 -29 -34 0
-3 -8 -13 -29 -33 0
-3 -8 -13 -29 -32 0
-3 -8 -13 -28 -34 0
-3 -8 -13 -28 -33 0
-3 -8 -13 -28 -32 0
-3 -8 -13 -27 -34 0
-3 -8 -13 -27 -33 0
-3 -8 -13 -27 -32 0
-3 -8 -19 -24 -34 0
-3 -8 -19 -24 -33 0
-3 -8 -19 -24 -32 0
-3 -8 -19 -29 -34 0
-3 -8 -19 -29 -33 0
-3 -8 -19 -29 -32 0
-3 -8 -19 -28 -34 0
-3 -8 -19 -28 -33 0
-3 -8 -19 -28 -32 0
-3 -8 -19 -27 -34 0
-3 -8 -19 -27 -33 0
-3 -8 -19 -27 -32 0
-3 -8 -18 -24 -34 0
-3 -8 -18 -24 -33 0
-3 -8 -18 -24 -32 0
-3 -8 -18 -29 -34 0
-3 -8 -18 -29 -33 0
-3 -8 -18 -29 -32 0
-3 -8 -18 -28 -34 0
-3 -8 -18 -28 -33 0
-3 -8 -18 -28 -32 0
-3 -8 -18 -27 -34 0
-3 -8 -18 -27 -33 0
-3 -8 -18 -27 -32 0
-3 -7 -14 -24 -34 0
-3 -7 -14 -24 -33 0
-3 -7 -14 -24 -32 0
-3 -7 -14 -29 -34 0
-3 -7 -14 -29 -33 0
-3 -7 -14 -29 -32 0
-3 -7 -14 -28 -34 0
-3 -7 -14 -28 -33 0
-3 -7 -14 -28 -32 0
-3 -7 -14 -27 -34 0
-3 -7 -14 -27 -33 0
-3 -7 -14 -27 -32 0
-3 -7 -13 -24 -34 0
-3 -7 -13 -24 -33 0
-3 -7 -13 -24 -32 0
-3 -7 -13 -29 -34 0
-3 -7 -13 -29 -33 0
-3 -7 -13 -29 -32 0
-3 -7 -13 -28 -34 0
-3 -7 -13 -28 -33 0
-3 -7 -13 -28 -32 0
-3 -7 -13 -27 -34 0
-3 -7 -13 -27 -33 0
-3 -7 -13 -27 -32 0
-3 -7 -19 -24 -34 0
-3 -7 -19 -24 -33 0
-3 -7 -19 -24 -32 0
-3 -7 -19 -29 -34 0
-3 -7 -19 -29 -33 0
-3 -7 -19 -29 -32 0
-3 -7 -19 -28 -34 0
-3 -7 -19 -28 -33 0
-3 -7 -19 -28 -32 0
-3 -7 -19 -27 -34 0
-3 -7 -19 -27 -33 0
-3 -7 -19 -27 -32 0
-3 -7 -18 -24 -34 0
-3 -7 -18 -24 -33 0
-3 -7 -18 -24 -32 0
-3 -7 -18 -29 -34 0
-3 -7 -18 -29 -33 0
-3 -7 -18 -29 -32 0
-3 -7 -18 -28 -34 0
-3 -7 -18 -28 -33 0
-3 -7 -18 -28 -32 0
-3 -7 -18 -27 -34 0
-3 -7 -18 -27 -33 0
-3 -7 -18 -27 -32 0
-2 -9 -14 -24 -34 0
-2 -9 -14 -24 -33 0
-2 -9 -14 -24 -32 0
-2 -9 -14 -29 -34 0
-2 -9 -14 -29 -33 0
-2 -9 -14 -29 -32 0
-2 -9 -14 -28 -34 0
-2 -9 -14 -28 -33 0
-2 -9 -14 -28 -32 0
-2 -9 -14 -27 -34 0
-2 -9 -14 -27 -33 0
-2 -9 -14 -27 -32 0
-2 -9 -13 -24 -34 0
-2 -9 -13 -24 -33 0
-2 -9 -13 -24 -32 0
-2 -9 -13 -29 -34 0
-2 -9 -13 -29 -33 0
-2 -9 -13 -29 -32 0
-2 -9 -13 -28 -34 0
-2 -9 -13 -28 -33 0
-2 -9 -13 -28 -32 0
-2 -9 -13 -27 -34 0
-2 -9 -13 -27 -33 0
-2 -9 -13 -27 -32 0
-2 -9 -19 -24 -34 0
-2 -9 -19 -24 -33 0
-2 -9 -19 -24 -32 0
-2 -9 -19 -29 -34 0
-2 -9 -19 -29 -33 0
-2 -9 -19 -29 -32 0
-2 -9 -19 -28 -34 0
-2 -9 -19 -28 -33 0
-2 -9 -19 -28 -32 0
-2 -9 -19 -27 -34 0
-2 -9 -19 -27 -33 0
-2 -9 -19 -27 -32 0
-2 -9 -18 -24 -34 0
-2 -9 -18 -24 -33 0
-2 -9 -18 -24 -32 0
-2 -9 -18 -29 -34 0
-2 -9 -18 -29 -33 0
-2 -9 -18 -29 -32 0
-2 -9 -18 -28 -34 0
-2 -9 -18 -28 -33 0
-2 -9 -18 -28 -32 0
-2 -9 -18 -27 -34 0
-2 -9 -18 -27 -33 0
-2 -9 -18 -27 -32 0
-2 -8 -14 -24 -34 0
-2 -8 -14 -24 -33 0
-2 -8 -14 -24 -32 0
-2 -8 -14 -29 -34 0
-2 -8 -14 -29 -33 0
-2 -8 -14 -29 -32 0
-2 -8 -14 -28 -34 0
-2 -8 -14 -28 -33 0
-2 -8 -14 -28 -32 0
-2 -8 -14 -27 -34 0
-2 -8 -14 -27 -33 0
-2 -8 -14 -27 -32 0
-2 -8 -13 -24 -34 0
-2 -8 -13 -24 -33 0
-2 -8 -13 -24 -32 0
-2 -8 -13 -29 -34 0
-2 -8 -13 -29 -33 0
-2 -8 -13 -29 -32 0
-2 -8 -13 -28 -34 0
-2 -8 -13 -28 -33 0
-2 -8 -13 -28 -32 0
-2 -8 -13 -27 -34 0
-2 -8 -13 -27 -33 0
-2 -8 -13 -27 -32 0
-2 -8 -19 -24 -34 0
-2 -8 -19 -24 -33 0
-2 -8 -19 -24 -32 0
-2 -8 -19 -29 -34 0
-2 -8 -19 -29 -33 0
-2 -8 -19 -29 -32 0
-2 -8 -19 -28 -34 0
-2 -8 -19 -28 -33 0
-2 -8 -19 -28 -32 0
-2 -8 -19 -27 -34 0
-2 -8 -19 -27 -33 0
-2 -8 -19 -27 -32 0
-2 -8 -18 -24 -34 0
-2 -8 -18 -24 -33 0
-2 -8 -18 -24 -32 0
-2 -8 -18 -29 -34 0
-2 -8 -18 -29 -33 0
-2 -8 -18 -29 -32 0
-2 -8 -18 -28 -34 0
-2 -8 -18 -28 -33 0
-2 -8 -18 -28 -32 0
-2 -8 -18 -27 -34 0
-2 -8 -18 -27 -33 0
-2 -8 -18 -27 -32 0
-2 -7 -14 -24 -34 0
-2 -7 -14 -24 -33 0
-2 -7 -14 -24 -32 0
-2 -7 -14 -29 -34 0
-2 -7 -14 -29 -33 0
-2 -7 -14 -29 -32 0
-2 -7 -14 -28 -34 0
-2 -7 -14 -28 -33 0
-2 -7 -14 -28 -32 0
-2 -7 -14 -27 -34 0
-2 -7 -14 -27 -33 0
-2 -7 -14 -27 -32 0
-2 -7 -13 -24 -34 0
-2 -7 -13 -24 -33 0
-2 -7 -13 -24 -32 0
-2 -7 -13 -29 -34 0
-2 -7 -13 -29 -33 0
-2 -7 -13 -29 -32 0
-2 -7 -13 -28 -34 0
-2 -7 -13 -28 -33 0
-2 -7 -13 -28 -32 0
-2 -7 -13 -27 -34 0
-2 -7 -13 -27 -33 0
-2 -7 -13 -27 -32 0
-2 -7 -19 -24 -34 0
-2 -7 -19 -24 -33 0
-2 -7 -19 -24 -32 0
-2 -7 -19 -29 -34 0
-2 -7 -19 -29 -33 0
-2 -7 -19 -29 -32 0
-2 -7 -19 -28 -34 0
-2 -7 -19 -28 -33 0
-2 -7 -19 -28 -32 0
-2 -7 -19 -27 -34 0
-2 -7 -19 -27 -33 0
-2 -7 -19 -27 -32 0
-2 -7 -18 -24 -34 0
-2 -7 -18 -24 -33 0
-2 -7 -18 -24 -32 0
-2 -7 -18 -29 -34 0
-2 -7 -18 -29 -33 0
-2 -7 -18 -29 -32 0
-2 -7 -18 -28 -34 0
-2 -7 -18 -28 -33 0
-2 -7 -18 -28 -32 0
-2 -7 -18 -27 -34 0
-2 -7 -18 -27 -33 0
-2 -7 -18 -27 -32 0
5 4 3 10 9 8 0
5 4 3 15 14 20 19 0
5 4 3 25 30 29 28 0
5 4 3 35 34 33 0
10 9 8 15 14 20 19 0
10 9 8 25 30 29 28 0
10 9 8 35 34 33 0
15 14 20 19 25 30 29 28 0
15 14 20 19 35 34 33 0
25 30 29 28 35 34 33 0
-5 -10 -15 0
-5 -10 -14 0
-5 -10 -20 0
-5 -10 -19 0
-5 -9 -15 0
-5 -9 -14 0
-5 -9 -20 0
-5 -9 -19 0
-5 -8 -15 0
-5 -8 -14 0
-5 -8 -20 0
-5 -8 -19 0
-4 -10 -15 0
-4 -10 -14 0
-4 -10 -20 0
-4 -10 -19 0
-4 -9 -15 0
-4 -9 -14 0
-4 -9 -20 0
-4 -9 -19 0
-4 -8 -15 0
-4 -8 -14 0
-4 -8 -20 0
-4 -8 -19 0
-3 -10 -15 0
-3 -10 -14 0
-3 -10 -20 0
-3 -10 -19 0
-3 -9 -15 0
-3 -9 -14 0
-3 -9 -20 0
-3 -9 -19 0
-3 -8 -15 0
-3 -8 -14 0
-3 -8 -20 0
-3 -8 -19 0
-5 -10 -25 0
-5 -10 -30 0
-5 -10 -29 0
-5 -10 -28 0
-5 -9 -25 0
-5 -9 -30 0
-5 -9 -29 0
-5 -9 -28 0
-5 -8 -25 0
-5 -8 -30 0
-5 -8 -29 0
-5 -8 -28 0
-4 -10 -25 0
-4 -10 -30 0
-4 -10 -29 0
-4 -10 -28 0
-4 -9 -25 0
-4 -9 -30 0
-4 -9 -29 0
-4 -9 -28 0
-4 -8 -25 0
-4 -8 -30 0
-4 -8 -29 0
-4 -8 -28 0
-3 -10 -25 0
-3 -10 -30 0
-3 -10 -29 0
-3 -10 -28 0
-3 -9 -25 0
-3 -9 -30 0
-3 -9 -29 0
-3 -9 -28 0
-3 -8 -25 0
-3 -8 -30 0
-3 -8 -29 0
-3 -8 -28 0
-5 -10 -35 0
-5 -10 -34 0
-5 -10 -33 0
-5 -9 -35 0
-5 -9 -34 0
-5 -9 -33 0
-5 -8 -35 0
-5 -8 -34 0
-5 -8 -33 0
-4 -10 -35 0
-4 -10 -34 0
-4 -10 -33 0
-4 -9 -35 0
-4 -9 -34 0
-4 -9 -33 0
-4 -8 -35 0
-4 -8 -34 0
-4 -8 -33 0
-3 -10 -35 0
-3 -10 -34 0
-3 -10 -33 0
-3 -9 -35 0
-3 -9 -34 0
-3 -9 -33 0
-3 -8 -35 0
-3 -8 -34 0
-3 -8 -33 0
-5 -15 -25 0
-5 -15 -30 0
-5 -15 -29 0
-5 -15 -28 0
-5 -14 -25 0
-5 -14 -30 0
-5 -14 -29 0
-5 -14 -28 0
-5 -20 -25 0
-5 -20 -30 0
-5 -20 -29 0
-5 -20 -28 0
-5 -19 -25 0
-5 -19 -30 0
-5 -19 -29 0
-5 -19 -28 0
-4 -15 -25 0
-4 -15 -30 0
-4 -15 -29 0
-4 -15 -28 0
-4 -14 -25 0
-4 -14 -30 0
-4 -14 -29 0
-4 -14 -28 0
-4 -20 -25 0
-4 -20 -30 0
-4 -20 -29 0
-4 -20 -28 0
-4 -19 -25 0
-4 -19 -30 0
-4 -19 -29 0
-4 -19 -28 0
-3 -15 -25 0
-3 -15 -30 0
-3 -15 -29 0
-3 -15 -28 0
-3 -14 -25 0
-3 -14 -30 0
-3 -14 -29 0
-3 -14 -28 0
-3 -20 -25 0
-3 -20 -30 0
-3 -20 -29 0
-3 -20 -28 0
-3 -19 -25 0
-3 -19 -30 0
-3 -19 -29 0
-3 -19 -28 0
-5 -15 -35 0
-5 -15 -34 0
-5 -15 -33 0
-5 -14 -35 0
-5 -14 -34 0
-5 -14 -33 0
-5 -20 -35 0
-5 -20 -34 0
-5 -20 -33 0
-5 -19 -35 0
-5 -19 -34 0
-5 -19 -33 0
-4 -15 -35 0
-4 -15 -34 0
-4 -15 -33 0
-4 -14 -35 0
-4 -14 -34 0
-4 -14 -33 0
-4 -20 -35 0
-4 -20 -34 0
-4 -20 -33 0
-4 -19 -35 0
-4 -19 -34 0
-4 -19 -33 0
-3 -15 -35 0
-3 -15 -34 0
-3 -15 -33 0
-3 -14 -35 0
-3 -14 -34 0
-3 -14 -33 0
-3 -20 -35 0
-3 -20 -34 0
-3 -20 -33 0
-3 -19 -35 0
-3 -19 -34 0
-3 -19 -33 0
-5 -25 -35 0
-5 -25 -34 0
-5 -25 -33 0
-5 -30 -35 0
-5 -30 -34 0
-5 -30 -33 0
-5 -29 -35 0
-5 -29 -34 0
-5 -29 -33 0
-5 -28 -35 0
-5 -28 -34 0
-5 -28 -33 0
-4 -25 -35 0
-4 -25 -34 0
-4 -25 -33 0
-4 -30 -35 0
-4 -30 -34 0
-4 -30 -33 0
-4 -29 -35 0
-4 -29 -34 0
-4 -29 -33 0
-4 -28 -35 0
-4 -28 -34 0
-4 -28 -33 0
-3 -25 -35 0
-3 -25 -34 0
-3 -25 -33 0
-3 -30 -35 0
-3 -30 -34 0
-3 -30 -33 0
-3 -29 -35 0
-3 -29 -34 0
-3 -29 -33 0
-3 -28 -35 0
-3 -28 -34 0
-3 -28 -33 0
-10 -15 -25 0
-10 -15 -30 0
-10 -15 -29 0
-10 -15 -28 0
-10 -14 -25 0
-10 -14 -30 0
-10 -14 -29 0
-10 -14 -28 0
-10 -20 -25 0
-10 -20 -30 0
-10 -20 -29 0
-10 -20 -28 0
-10 -19 -25 0
-10 -19 -30 0
-10 -19 -29 0
-10 -19 -28 0
-9 -15 -25 0
-9 -15 -30 0
-9 -15 -29 0
-9 -15 -28 0
-9 -14 -25 0
-9 -14 -30 0
-9 -14 -29 0
-9 -14 -28 0
-9 -20 -25 0
-9 -20 -30 0
-9 -20 -29 0
-9 -20 -28 0
-9 -19 -25 0
-9 -19 -30 0
-9 -19 -29 0
-9 -19 -28 0
-8 -15 -25 0
-8 -15 -30 0
-8 -15 -29 0
-8 -15 -28 0
-8 -14 -25 0
-8 -14 -30 0
-8 -14 -29 0
-8 -14 -28 0
-8 -20 -25 0
-8 -20 -30 0
-8 -20 -29 0
-8 -20 -28 0
-8 -19 -25 0
-8 -19 -30 0
-8 -19 -29 0
-8 -19 -28 0
-10 -15 -35 0
-10 -15 -34 0
-10 -15 -33 0
-10 -14 -35 0
-10 -14 -34 0
-10 -14 -33 0
-10 -20 -35 0
-10 -20 -34 0
-10 -20 -33 0
-10 -19 -35 0
-10 -19 -34 0
-10 -19 -33 0
-9 -15 -35 0
-9 -15 -34 0
-9 -15 -33 0
-9 -14 -35 0
-9 -14 -34 0
-9 -14 -33 0
-9 -20 -35 0
-9 -20 -34 0
-9 -20 -33 0
-9 -19 -35 0
-9 -19 -34 0
-9 -19 -33 0
-8 -15 -35 0
-8 -15 -34 0
-8 -15 -33 0
-8 -14 -35 0
-8 -14 -34 0
-8 -14 -33 0
-8 -20 -35 0
-8 -20 -34 0
-8 -20 -33 0
-8 -19 -35 0
-8 -19 -34 0
-8 -19 -33 0
-10 -25 -35 0
-10 -25 -34 0
-10 -25 -33 0
-10 -30 -35 0
-10 -30 -34 0
-10 -30 -33 0
-10 -29 -35 0
-10 -29 -34 0
-10 -29 -33 0
-10 -28 -35 0
-10 -28 -34 0
-10 -28 -33 0
-9 -25 -35 0
-9 -25 -34 0
-9 -25 -33 0
-9 -30 -35 0
-9 -30 -34 0
-9 -30 -33 0
-9 -29 -35 0
-9 -29 -34 0
-9 -29 -33 0
-9 -28 -35 0
-9 -28 -34 0
-9 -28 -33 0
-8 -25 -35 0
-8 -25 -34 0
-8 -25 -33 0
-8 -30 -35 0
-8 -30 -34 0
-8 -30 -33 0
-8 -29 -35 0
-8 -29 -34 0
-8 -29 -33 0
-8 -28 -35 0
-8 -28 -34 0
-8 -28 -33 0
-15 -25 -35 0
-15 -25 -34 0
-15 -25 -33 0
-15 -30 -35 0
-15 -30 -34 0
-15 -30 -33 0
-15 -29 -35 0
-15 -29 -34 0
-15 -29 -33 0
-15 -28 -35 0
-15 -28 -34 0
-15 -28 -33 0
-14 -25 -35 0
-14 -25 -34 0
-14 -25 -33 0
-14 -30 -35 0
-14 -30 -34 0
-14 -30 -33 0
-14 -29 -35 0
-14 -29 -34 0
-14 -29 -33 0
-14 -28 -35 0
-14 -28 -34 0
-14 -28 -33 0
-20 -25 -35 0
-20 -25 -34 0
-20 -25 -33 0
-20 -30 -35 0
-20 -30 -34 0
-20 -30 -33 0
-20 -29 -35 0
-20 -29 -34 0
-20 -29 -33 0
-20 -28 -35 0
-20 -28 -34 0
-20 -28 -33 0
-19 -25 -35 0
-19 -25 -34 0
-19 -25 -33 0
-19 -30 -35 0
-19 -30 -34 0
-19 -30 -33 0
-19 -29 -35 0
-19 -29 -34 0
-19 -29 -33 0
-19 -28 -35 0
-19 -28 -34 0
-19 -28 -33 0
